NAME: binpacking2d-07.bp2d
COMMENT: gcut7
NB_ITEMS: 30
BIN_WIDTH: 500
BIN_HEIGHT: 500

ITEMS [id width height]:
1 348 220
2 255 184
3 191 249
4 212 194
5 348 322
6 171 369
7 206 327
8 221 277
9 250 202
10 205 226
11 193 280
12 364 311
13 264 224
14 244 347
15 270 338
16 224 236
17 168 177
18 285 347
19 315 294
20 247 219
21 315 302
22 129 147
23 268 273
24 350 352
25 186 258
26 365 374
27 145 259
28 284 184
29 129 198
30 146 351